(set-info :status unsat)
(declare-fun aux!5_n () Real)
(declare-fun aux!2_n () Real)
(declare-fun INV_2_n () Real)
(declare-fun aux!8_n () Real)
(declare-fun aux!6_n () Real)
(declare-fun aux!3_n () Real)
(declare-fun INV_1_n () Real)
(declare-fun aux!7_n () Real)
(declare-fun aux!4_n () Real)
(declare-fun INV_0_n () Real)
(declare-fun INV_2_0 () Real)
(declare-fun INV_5_0 () Bool)
(declare-fun INV_1_0 () Real)
(declare-fun INV_4_0 () Bool)
(declare-fun INV_4_n () Bool)
(declare-fun INV_0_0 () Real)
(declare-fun INV_3_0 () Bool)
(declare-fun INV_3_n () Bool)
(declare-fun INV_5_n () Bool)
(declare-fun |vsolver#0| () Bool)
(declare-fun INV__tr1 () Bool)
(declare-fun INV__tr0 () Bool)
(declare-fun |INV#level_0!9| () Bool)
(declare-fun |INV#reach_tag_0_0| () Bool)
(declare-fun |INV#level_1!13| () Bool)
(declare-fun spacer_proxy!0 () Bool)
(declare-fun spacer_proxy!1 () Bool)
(declare-fun spacer_proxy!2 () Bool)
(declare-fun spacer_proxy!3 () Bool)
(declare-fun spacer_proxy!4 () Bool)
(declare-fun spacer_proxy!5 () Bool)
(declare-fun spacer_proxy!6 () Bool)
(declare-fun spacer_proxy!7 () Bool)
(declare-fun spacer_proxy!8 () Bool)
(declare-fun spacer_proxy!9 () Bool)
(declare-fun spacer_proxy!10 () Bool)
(declare-fun spacer_proxy!11 () Bool)
(declare-fun spacer_proxy!12 () Bool)
(declare-fun spacer_proxy!13 () Bool)
(declare-fun spacer_proxy!14 () Bool)
(declare-fun |INV#level_2!14| () Bool)
(declare-fun spacer_proxy!15 () Bool)
(declare-fun spacer_proxy!16 () Bool)
(declare-fun spacer_proxy!17 () Bool)
(declare-fun spacer_proxy!18 () Bool)
(declare-fun spacer_proxy!19 () Bool)
(declare-fun spacer_proxy!20 () Bool)
(declare-fun spacer_proxy!21 () Bool)
(declare-fun spacer_proxy!22 () Bool)
(declare-fun spacer_proxy!23 () Bool)
(declare-fun spacer_proxy!24 () Bool)
(declare-fun spacer_proxy!25 () Bool)
(declare-fun spacer_proxy!26 () Bool)
(declare-fun spacer_proxy!27 () Bool)
(declare-fun INV_ext0_n () Bool)
(declare-fun |INV#level_3!15| () Bool)
(declare-fun |INV#level_4!17| () Bool)
(declare-fun |INV#level_5!19| () Bool)
(assert (let ((a!1 (>= (+ (* (/ 3.0 32.0) aux!5_n)
                  (* (/ 57.0 64.0) aux!6_n)
                  (* (- (/ 5.0 16.0)) aux!8_n))
               (- (/ 1.0 64.0))))
      (a!2 (<= (+ (* (/ 1.0 16.0) aux!5_n)
                  (* (/ 73.0 64.0) aux!6_n)
                  (* (- (/ 11.0 32.0)) aux!7_n)
                  (* (- (/ 1.0 4.0)) aux!8_n))
               (/ 1.0 16.0)))
      (a!3 (<= (+ (* (/ 5.0 16.0) aux!5_n)
                  (* (- (/ 59.0 64.0)) aux!6_n)
                  (* (/ 7.0 64.0) aux!7_n)
                  (* (/ 5.0 16.0) aux!8_n))
               (/ 1.0 32.0))))
(let ((a!4 (ite a!2
                (= (+ INV_0_n
                      (* (/ 1.0 16.0) aux!5_n)
                      (* (/ 73.0 64.0) aux!6_n)
                      (* (- (/ 11.0 32.0)) aux!7_n)
                      (* (- (/ 1.0 4.0)) aux!8_n))
                   (/ 1.0 16.0))
                (= INV_0_n aux!4_n)))
      (a!5 (ite a!3
                (= (+ INV_1_n
                      (* (/ 5.0 16.0) aux!5_n)
                      (* (- (/ 59.0 64.0)) aux!6_n)
                      (* (/ 7.0 64.0) aux!7_n)
                      (* (/ 5.0 16.0) aux!8_n))
                   (/ 1.0 32.0))
                (= INV_1_n aux!3_n)))
      (a!6 (ite a!1
                (= (+ INV_2_n
                      (* (- (/ 3.0 32.0)) aux!5_n)
                      (* (- (/ 57.0 64.0)) aux!6_n)
                      (* (/ 5.0 16.0) aux!8_n))
                   (/ 1.0 64.0))
                (= INV_2_n aux!2_n))))
(let ((a!7 (or (= INV_5_n a!1)
               (= INV_3_n a!2)
               (not (ite INV_3_0 (= aux!8_n 0.0) (= aux!8_n INV_0_0)))
               (= INV_4_n a!3)
               (not (ite INV_4_0 (= aux!7_n 0.0) (= aux!7_n INV_1_0)))
               (not (ite INV_5_0 (= aux!6_n 0.0) (= aux!6_n INV_2_0)))
               (not a!4)
               (not a!5)
               (not a!6)
               (not (>= aux!5_n (/ 1.0 64.0)))
               (not (<= aux!5_n (/ 1.0 32.0))))))
  (or (not INV__tr1) (not |vsolver#0|) (not a!7))))))
(assert (let ((a!1 (not (or INV_5_n
                    INV_4_n
                    INV_3_n
                    (not (= INV_0_n 0.0))
                    (not (= INV_1_n (/ 3.0 32.0)))
                    (not (= INV_2_n (/ 3.0 32.0)))))))
  (or (not INV__tr0) (not |vsolver#0|) a!1)))
(assert (or (not INV__tr1) |INV#level_0!9| (not |vsolver#0|)))
(assert (let ((a!1 (not (or INV_3_0
                    INV_4_0
                    INV_5_0
                    (not (= INV_0_0 0.0))
                    (not (= INV_1_0 (/ 3.0 32.0)))
                    (not (= INV_2_0 (/ 3.0 32.0)))))))
  (or (not INV__tr1) |INV#reach_tag_0_0| a!1 (not |vsolver#0|))))
(assert (or (not INV_4_n) |INV#level_0!9| (not |vsolver#0|)))
(assert (or (not INV__tr1) (not INV_4_0) |INV#level_1!13| (not |vsolver#0|)))
(assert (or (not |vsolver#0|) (= INV_2_n 0.0) (not spacer_proxy!0)))
(assert (or (not |vsolver#0|)
    (>= (+ (* (/ 11.0 32.0) INV_1_n) (* (/ 1.0 4.0) INV_0_n))
        (- (/ 63.0 1024.0)))
    (not spacer_proxy!1)))
(assert (or (not |vsolver#0|) (not spacer_proxy!2) (not (<= INV_0_n (/ 7.0 128.0)))))
(assert (let ((a!1 (not (<= (+ (* (/ 7.0 64.0) INV_1_n) (* (/ 5.0 16.0) INV_0_n))
                    (/ 27.0 1024.0)))))
  (or (not |vsolver#0|) a!1 (not spacer_proxy!3))))
(assert (or |INV#level_0!9| (not |vsolver#0|) (<= INV_0_n 0.0)))
(assert (or (not INV__tr1) |INV#level_1!13| (not |vsolver#0|) (<= INV_0_0 0.0)))
(assert (let ((a!1 (not (>= (+ (* (/ 57.0 64.0) INV_2_n) (* (- (/ 5.0 16.0)) INV_0_n))
                    (- (/ 35.0 2048.0))))))
  (or (not |vsolver#0|) (not spacer_proxy!4) a!1)))
(assert (or (not |vsolver#0|)
    (>= (+ (* (/ 11.0 32.0) INV_1_n)
           (* (- (/ 73.0 64.0)) INV_2_n)
           (* (/ 1.0 4.0) INV_0_n))
        (- (/ 63.0 1024.0)))
    (not spacer_proxy!5)))
(assert (let ((a!1 (not (<= (+ (* (/ 7.0 64.0) INV_1_n)
                       (* (- (/ 59.0 64.0)) INV_2_n)
                       (* (/ 5.0 16.0) INV_0_n))
                    (/ 27.0 1024.0)))))
  (or (not |vsolver#0|) a!1 (not spacer_proxy!6))))
(assert (or |INV#level_0!9|
    (not |vsolver#0|)
    (>= (+ INV_2_n (* (- (/ 20.0 57.0)) INV_0_n)) (/ 17.0 228.0))))
(assert (or (not INV__tr1)
    |INV#level_1!13|
    (not |vsolver#0|)
    (<= (+ (* (/ 20.0 57.0) INV_0_0) (* (- 1.0) INV_2_0)) (- (/ 17.0 228.0)))))
(assert (or (not |vsolver#0|)
    (>= (+ (* (/ 57.0 64.0) INV_2_n) (* (- (/ 5.0 16.0)) INV_0_n))
        (- (/ 19.0 1024.0)))
    (not spacer_proxy!7)))
(assert (let ((a!1 (not (<= (+ (* (/ 7.0 64.0) INV_1_n)
                       (* (- (/ 59.0 64.0)) INV_2_n)
                       (* (/ 5.0 16.0) INV_0_n))
                    (/ 11.0 512.0)))))
  (or (not |vsolver#0|) a!1 (not spacer_proxy!8))))
(assert (or (not |vsolver#0|)
    (>= (+ (* (/ 11.0 32.0) INV_1_n)
           (* (- (/ 73.0 64.0)) INV_2_n)
           (* (/ 1.0 4.0) INV_0_n))
        (- (/ 31.0 512.0)))
    (not spacer_proxy!9)))
(assert (or |INV#level_0!9|
    (not |vsolver#0|)
    (<= (+ (* (/ 7.0 59.0) INV_1_n)
           (* (- 1.0) INV_2_n)
           (* (/ 20.0 59.0) INV_0_n))
        (- (/ 121.0 1888.0)))))
(assert (or (not INV__tr1)
    |INV#level_1!13|
    (not |vsolver#0|)
    (<= (+ (* (/ 20.0 59.0) INV_0_0)
           (* (/ 7.0 59.0) INV_1_0)
           (* (- 1.0) INV_2_0))
        (- (/ 121.0 1888.0)))))
(assert (let ((a!1 (not (<= (+ (* (/ 7.0 64.0) INV_1_n) (* (/ 5.0 16.0) INV_0_n))
                    (/ 11.0 512.0)))))
  (or (not |vsolver#0|) a!1 (not spacer_proxy!10))))
(assert (or (not |vsolver#0|)
    (>= (+ (* (/ 11.0 32.0) INV_1_n) (* (/ 1.0 4.0) INV_0_n))
        (- (/ 31.0 512.0)))
    (not spacer_proxy!11)))
(assert (or (not |vsolver#0|) (not spacer_proxy!12) (<= INV_0_n (/ 19.0 320.0))))
(assert (or (not INV_5_n) |INV#level_0!9| (not |vsolver#0|)))
(assert (or (not INV__tr1) (not INV_5_0) |INV#level_1!13| (not |vsolver#0|)))
(assert (or (not |vsolver#0|) (>= INV_1_n (- (/ 31.0 176.0))) (not spacer_proxy!13)))
(assert (or (not |vsolver#0|) (not (<= INV_1_n (/ 11.0 56.0))) (not spacer_proxy!14)))
(assert (or (not INV_3_n) |INV#level_0!9| (not |vsolver#0|)))
(assert (or (not INV__tr1) (not INV_3_0) |INV#level_1!13| (not |vsolver#0|)))
(assert (or (not INV_4_n) |INV#level_1!13| (not |vsolver#0|)))
(assert (or (not INV__tr1) (not INV_4_0) (not |vsolver#0|) |INV#level_2!14|))
(assert (or (not INV_5_n) |INV#level_1!13| (not |vsolver#0|)))
(assert (or (not INV__tr1) (not INV_5_0) (not |vsolver#0|) |INV#level_2!14|))
(assert (or (not |vsolver#0|) (not (<= INV_0_n 0.0)) (not spacer_proxy!15)))
(assert (let ((a!1 (not (>= (+ INV_2_n (* (- (/ 20.0 57.0)) INV_0_n)) (/ 17.0 228.0)))))
  (or (not |vsolver#0|) a!1 (not spacer_proxy!16))))
(assert (let ((a!1 (not (<= (+ (* (/ 7.0 59.0) INV_1_n)
                       (* (- 1.0) INV_2_n)
                       (* (/ 20.0 59.0) INV_0_n))
                    (- (/ 121.0 1888.0))))))
  (or (not |vsolver#0|) a!1 (not spacer_proxy!17))))
(assert (let ((a!1 (not (>= (+ (* (/ 57.0 64.0) INV_2_n) (* (- (/ 5.0 16.0)) INV_0_n))
                    (- (/ 19.0 1024.0))))))
  (or (not |vsolver#0|) (not spacer_proxy!18) a!1)))
(assert (let ((a!1 (not (>= (+ (* (/ 11.0 32.0) INV_1_n)
                       (* (- (/ 73.0 64.0)) INV_2_n)
                       (* (/ 1.0 4.0) INV_0_n))
                    (- (/ 31.0 512.0))))))
  (or (not |vsolver#0|) a!1 (not spacer_proxy!19))))
(assert (let ((a!1 (not (>= (+ (* (/ 99.0 2048.0) INV_1_n)
                       (* (- (/ 4031.0 4096.0)) INV_2_n)
                       (* (/ 319.0 1024.0) INV_0_n))
                    (- (/ 8585.0 131072.0))))))
  (or (not |vsolver#0|) a!1 (not spacer_proxy!20))))
(assert (or (not |vsolver#0|)
    (<= (+ (* (/ 7.0 64.0) INV_1_n)
           (* (- (/ 59.0 64.0)) INV_2_n)
           (* (/ 5.0 16.0) INV_0_n))
        (/ 27.0 1024.0))
    (not spacer_proxy!21)))
(assert (let ((a!1 (not (<= (+ (* (/ 391.0 4096.0) INV_1_n)
                       (* (- (/ 2205.0 2048.0)) INV_2_n)
                       (* (/ 85.0 256.0) INV_0_n))
                    (/ 1983.0 131072.0)))))
  (or (not |vsolver#0|) (not spacer_proxy!22) a!1)))
(assert (let ((a!1 (not (<= (+ (* (/ 55.0 512.0) INV_1_n)
                       (* (- (/ 4709.0 4096.0)) INV_2_n)
                       (* (/ 365.0 1024.0) INV_0_n))
                    (/ 1907.0 131072.0)))))
  (or (not |vsolver#0|) (not spacer_proxy!23) a!1)))
(assert (or (not |vsolver#0|)
    (>= (+ (* (/ 57.0 64.0) INV_2_n) (* (- (/ 5.0 16.0)) INV_0_n))
        (- (/ 35.0 2048.0)))
    (not spacer_proxy!24)))
(assert (or |INV#level_0!9|
    (not |vsolver#0|)
    (<= (+ (* (/ 4920587.0 1525296.0) INV_1_n)
           (* (- (/ 41473519.0 1525296.0)) INV_2_n)
           (* (/ 3133381.0 381324.0) INV_0_n))
        (- (/ 85055861.0 48809472.0)))))
(assert (or (not INV__tr1)
    |INV#level_1!13|
    (not |vsolver#0|)
    (<= (+ (* (/ 3133381.0 381324.0) INV_0_0)
           (* (/ 4920587.0 1525296.0) INV_1_0)
           (* (- (/ 41473519.0 1525296.0)) INV_2_0))
        (- (/ 85055861.0 48809472.0)))))
(assert (let ((a!1 (not (>= (+ INV_1_n
                       (* (/ 516.0 71.0) INV_2_n)
                       (* (- (/ 205884.0 55877.0)) INV_0_n))
                    (/ 76345055.0 114436096.0)))))
  (or (not |vsolver#0|) a!1 (not spacer_proxy!25))))
(assert (let ((a!1 (not (<= (+ (* (/ 7.0 59.0) INV_1_n)
                       (* (- 1.0) INV_2_n)
                       (* (/ 20.0 59.0) INV_0_n))
                    (- (/ 121.0 1888.0))))))
  (or (not |vsolver#0|) a!1 (not spacer_proxy!26))))
(assert (or INV_3_0
    INV_5_0
    (not INV__tr1)
    (not |vsolver#0|)
    (<= (+ (* (/ 20.0 59.0) INV_0_0)
           (* (/ 7.0 59.0) INV_1_0)
           (* (- 1.0) INV_2_0))
        (- (/ 121.0 1888.0)))
    (<= (+ (* (/ 205884.0 55877.0) INV_0_0)
           (* (- 1.0) INV_1_0)
           (* (- (/ 516.0 71.0)) INV_2_0))
        (- (/ 76345055.0 114436096.0)))
    (not spacer_proxy!27)))
;; extra clause
(assert (or INV_ext0_n INV__tr0 INV__tr1 ))
(check-sat |vsolver#0|
 spacer_proxy!27
 (not INV_ext0_n)
 |INV#level_0!9|
 (not |INV#level_1!13|)
 (not |INV#level_2!14|)
 (not |INV#level_3!15|)
 (not |INV#level_4!17|)
 (not |INV#level_5!19|)
 spacer_proxy!25
 (not INV_3_n)
 (not INV_5_n)
 spacer_proxy!26
)
(exit)
(:added-eqs          257
 :arith-add-rows     1152
 :arith-assert-diseq 125
 :arith-assert-lower 446
 :arith-assert-upper 297
 :arith-bound-prop   81
 :arith-conflicts    11
 :arith-eq-adapter   65
 :arith-fixed-eqs    39
 :arith-offset-eqs   1
 :arith-pivots       126
 :conflicts          39
 :decisions          372
 :del-clause         53
 :final-checks       13
 :minimized-lits     1
 :mk-bool-var        327
 :mk-clause          302
 :num-checks         33
 :propagations       1399
 :time               0.01)
(params arith.solver 2 random_seed 0 dump_benchmarks true dump_threshold 0.00 mbqi true arith.ignore_int true array.weak true)